(set-info :smt-lib-version 2.6)
(set-logic QF_AX)
(set-info :source |
Benchmarks used in the followin paper:
Big proof engines as little proof engines: new results on rewrite-based satisfiability procedure
Alessandro Armando, Maria Paola Bonacina, Silvio Ranise, Stephan Schulz. 
PDPAR'05
http://www.ai.dist.unige.it/pdpar05/


|)
(set-info :category "crafted")
(set-info :status unsat)
(declare-sort Index 0)
(declare-sort Element 0)
(declare-fun a_151 () (Array Index Element))
(declare-fun a_152 () (Array Index Element))
(declare-fun a_154 () (Array Index Element))
(declare-fun a_156 () (Array Index Element))
(declare-fun a_158 () (Array Index Element))
(declare-fun a_160 () (Array Index Element))
(declare-fun a_162 () (Array Index Element))
(declare-fun a_164 () (Array Index Element))
(declare-fun a_166 () (Array Index Element))
(declare-fun a_168 () (Array Index Element))
(declare-fun a_170 () (Array Index Element))
(declare-fun a_172 () (Array Index Element))
(declare-fun a_174 () (Array Index Element))
(declare-fun a_176 () (Array Index Element))
(declare-fun a_178 () (Array Index Element))
(declare-fun a_179 () (Array Index Element))
(declare-fun a_181 () (Array Index Element))
(declare-fun a_183 () (Array Index Element))
(declare-fun a_185 () (Array Index Element))
(declare-fun a_187 () (Array Index Element))
(declare-fun a_188 () (Array Index Element))
(declare-fun a_189 () (Array Index Element))
(declare-fun a_191 () (Array Index Element))
(declare-fun a_193 () (Array Index Element))
(declare-fun a_195 () (Array Index Element))
(declare-fun a_197 () (Array Index Element))
(declare-fun a_199 () (Array Index Element))
(declare-fun a_201 () (Array Index Element))
(declare-fun a_203 () (Array Index Element))
(declare-fun a_205 () (Array Index Element))
(declare-fun a_207 () (Array Index Element))
(declare-fun a_209 () (Array Index Element))
(declare-fun a_211 () (Array Index Element))
(declare-fun a_212 () (Array Index Element))
(declare-fun a_214 () (Array Index Element))
(declare-fun a_216 () (Array Index Element))
(declare-fun a_218 () (Array Index Element))
(declare-fun a_220 () (Array Index Element))
(declare-fun e_150 () Element)
(declare-fun e_153 () Element)
(declare-fun e_155 () Element)
(declare-fun e_157 () Element)
(declare-fun e_159 () Element)
(declare-fun e_161 () Element)
(declare-fun e_163 () Element)
(declare-fun e_165 () Element)
(declare-fun e_167 () Element)
(declare-fun e_169 () Element)
(declare-fun e_171 () Element)
(declare-fun e_173 () Element)
(declare-fun e_175 () Element)
(declare-fun e_177 () Element)
(declare-fun e_180 () Element)
(declare-fun e_182 () Element)
(declare-fun e_184 () Element)
(declare-fun e_186 () Element)
(declare-fun e_190 () Element)
(declare-fun e_192 () Element)
(declare-fun e_194 () Element)
(declare-fun e_196 () Element)
(declare-fun e_198 () Element)
(declare-fun e_200 () Element)
(declare-fun e_202 () Element)
(declare-fun e_204 () Element)
(declare-fun e_206 () Element)
(declare-fun e_208 () Element)
(declare-fun e_210 () Element)
(declare-fun e_213 () Element)
(declare-fun e_215 () Element)
(declare-fun e_217 () Element)
(declare-fun e_219 () Element)
(declare-fun a1 () (Array Index Element))
(declare-fun i0 () Index)
(declare-fun i1 () Index)
(declare-fun i2 () Index)
(declare-fun i3 () Index)
(declare-fun i4 () Index)
(declare-fun i5 () Index)
(declare-fun i6 () Index)
(declare-fun i7 () Index)
(declare-fun i8 () Index)
(declare-fun i9 () Index)
(assert (= a_151 (store a1 i8 e_150)))
(assert (= a_152 (store a_151 i8 e_150)))
(assert (= a_154 (store a_152 i7 e_153)))
(assert (= a_156 (store a_154 i6 e_155)))
(assert (= a_158 (store a_156 i5 e_157)))
(assert (= a_160 (store a_158 i7 e_159)))
(assert (= a_162 (store a_160 i8 e_161)))
(assert (= a_164 (store a_162 i9 e_163)))
(assert (= a_166 (store a_164 i1 e_165)))
(assert (= a_168 (store a_166 i4 e_167)))
(assert (= a_170 (store a_168 i1 e_169)))
(assert (= a_172 (store a_170 i4 e_171)))
(assert (= a_174 (store a_172 i0 e_173)))
(assert (= a_176 (store a_174 i9 e_175)))
(assert (= a_178 (store a_176 i3 e_177)))
(assert (= a_179 (store a_178 i3 e_177)))
(assert (= a_181 (store a_179 i6 e_180)))
(assert (= a_183 (store a_181 i2 e_182)))
(assert (= a_185 (store a_183 i6 e_184)))
(assert (= a_187 (store a_185 i7 e_186)))
(assert (= a_188 (store a_152 i6 e_155)))
(assert (= a_189 (store a_188 i7 e_153)))
(assert (= a_191 (store a_189 i7 e_190)))
(assert (= a_193 (store a_191 i5 e_192)))
(assert (= a_195 (store a_193 i9 e_194)))
(assert (= a_197 (store a_195 i8 e_196)))
(assert (= a_199 (store a_197 i4 e_198)))
(assert (= a_201 (store a_199 i1 e_200)))
(assert (= a_203 (store a_201 i4 e_202)))
(assert (= a_205 (store a_203 i1 e_204)))
(assert (= a_207 (store a_205 i0 e_206)))
(assert (= a_209 (store a_207 i9 e_208)))
(assert (= a_211 (store a_209 i3 e_210)))
(assert (= a_212 (store a_211 i3 e_210)))
(assert (= a_214 (store a_212 i6 e_213)))
(assert (= a_216 (store a_214 i2 e_215)))
(assert (= a_218 (store a_216 i7 e_217)))
(assert (= a_220 (store a_218 i6 e_219)))
(assert (= e_150 (select a1 i8)))
(assert (= e_153 (select a_152 i6)))
(assert (= e_155 (select a_152 i7)))
(assert (= e_157 (select a_156 i7)))
(assert (= e_159 (select a_156 i5)))
(assert (= e_161 (select a_160 i9)))
(assert (= e_163 (select a_160 i8)))
(assert (= e_165 (select a_164 i4)))
(assert (= e_167 (select a_164 i1)))
(assert (= e_169 (select a_168 i4)))
(assert (= e_171 (select a_168 i1)))
(assert (= e_173 (select a_172 i9)))
(assert (= e_175 (select a_172 i0)))
(assert (= e_177 (select a_176 i3)))
(assert (= e_180 (select a_179 i2)))
(assert (= e_182 (select a_179 i6)))
(assert (= e_184 (select a_183 i7)))
(assert (= e_186 (select a_183 i6)))
(assert (= e_190 (select a_189 i5)))
(assert (= e_192 (select a_189 i7)))
(assert (= e_194 (select a_193 i8)))
(assert (= e_196 (select a_193 i9)))
(assert (= e_198 (select a_197 i1)))
(assert (= e_200 (select a_197 i4)))
(assert (= e_202 (select a_201 i1)))
(assert (= e_204 (select a_201 i4)))
(assert (= e_206 (select a_205 i9)))
(assert (= e_208 (select a_205 i0)))
(assert (= e_210 (select a_209 i3)))
(assert (= e_213 (select a_212 i2)))
(assert (= e_215 (select a_212 i6)))
(assert (= e_217 (select a_216 i6)))
(assert (= e_219 (select a_216 i7)))
(assert (not (= a_187 a_220)))
(check-sat)
(exit)
